p cnf 964 2475
51 -697 -1 0
-51 697 0
-51 1 0
52 -51 -698 0
-52 51 0
-52 698 0
53 -699 -700 0
-53 699 0
-53 700 0
54 -53 -6 0
-54 53 0
-54 6 0
55 -701 -702 0
-55 701 0
-55 702 0
56 -703 -704 0
-56 703 0
-56 704 0
57 -56 -9 0
-57 56 0
-57 9 0
58 -705 -55 0
-58 705 0
-58 55 0
59 -706 -707 0
-59 706 0
-59 707 0
60 -59 -12 0
-60 59 0
-60 12 0
61 -708 -58 0
-61 708 0
-61 58 0
62 -14 -13 0
-62 14 0
-62 13 0
63 -62 -15 0
-63 62 0
-63 15 0
64 -709 -61 0
-64 709 0
-64 61 0
65 -17 -16 0
-65 17 0
-65 16 0
66 -65 -18 0
-66 65 0
-66 18 0
67 -710 -64 0
-67 710 0
-67 64 0
68 -19 -17 0
-68 19 0
-68 17 0
69 -68 -20 0
-69 68 0
-69 20 0
70 -711 -67 0
-70 711 0
-70 67 0
71 -21 -700 0
-71 21 0
-71 700 0
72 -71 -712 0
-72 71 0
-72 712 0
73 -713 -70 0
-73 713 0
-73 70 0
74 -714 -23 0
-74 714 0
-74 23 0
75 -74 -9 0
-75 74 0
-75 9 0
76 -715 -73 0
-76 715 0
-76 73 0
77 -26 -25 0
-77 26 0
-77 25 0
78 -77 -716 0
-78 77 0
-78 716 0
79 -717 -76 0
-79 717 0
-79 76 0
80 -718 -10 0
-80 718 0
-80 10 0
81 -80 -719 0
-81 80 0
-81 719 0
82 -720 -79 0
-82 720 0
-82 79 0
83 -28 -4 0
-83 28 0
-83 4 0
84 -83 -15 0
-84 83 0
-84 15 0
85 -721 -82 0
-85 721 0
-85 82 0
86 -722 -17 0
-86 722 0
-86 17 0
87 -86 -723 0
-87 86 0
-87 723 0
88 -724 -85 0
-88 724 0
-88 85 0
89 -725 -706 0
-89 725 0
-89 706 0
90 -89 -723 0
-90 89 0
-90 723 0
91 -726 -88 0
-91 726 0
-91 88 0
92 -727 -14 0
-92 727 0
-92 14 0
93 -92 -3 0
-93 92 0
-93 3 0
94 -728 -91 0
-94 728 0
-94 91 0
95 -729 -718 0
-95 729 0
-95 718 0
96 -95 -33 0
-96 95 0
-96 33 0
97 -730 -94 0
-97 730 0
-97 94 0
98 -34 -731 0
-98 34 0
-98 731 0
99 -98 -22 0
-99 98 0
-99 22 0
100 -732 -97 0
-100 732 0
-100 97 0
101 -35 -17 0
-101 35 0
-101 17 0
102 -101 -15 0
-102 101 0
-102 15 0
103 -733 -100 0
-103 733 0
-103 100 0
104 -27 -26 0
-104 27 0
-104 26 0
105 -104 -734 0
-105 104 0
-105 734 0
106 -735 -103 0
-106 735 0
-106 103 0
107 -723 -706 0
-107 723 0
-107 706 0
108 -107 -20 0
-108 107 0
-108 20 0
109 -736 -106 0
-109 736 0
-109 106 0
110 -727 -2 0
-110 727 0
-110 2 0
111 -110 -11 0
-111 110 0
-111 11 0
112 -737 -109 0
-112 737 0
-112 109 0
113 -20 -716 0
-113 20 0
-113 716 0
114 -113 -738 0
-114 113 0
-114 738 0
115 -739 -112 0
-115 739 0
-115 112 0
116 -8 -740 0
-116 8 0
-116 740 0
117 -116 -738 0
-117 116 0
-117 738 0
118 -741 -115 0
-118 741 0
-118 115 0
119 -742 -743 0
-119 742 0
-119 743 0
120 -119 -699 0
-120 119 0
-120 699 0
121 -744 -118 0
-121 744 0
-121 118 0
122 -29 -10 0
-122 29 0
-122 10 0
123 -122 -714 0
-123 122 0
-123 714 0
124 -745 -121 0
-124 745 0
-124 121 0
125 -725 -746 0
-125 725 0
-125 746 0
126 -125 -747 0
-126 125 0
-126 747 0
127 -748 -124 0
-127 748 0
-127 124 0
128 -723 -740 0
-128 723 0
-128 740 0
129 -128 -6 0
-129 128 0
-129 6 0
130 -749 -127 0
-130 749 0
-130 127 0
131 -727 -10 0
-131 727 0
-131 10 0
132 -131 -750 0
-132 131 0
-132 750 0
133 -751 -130 0
-133 751 0
-133 130 0
134 -752 -16 0
-134 752 0
-134 16 0
135 -134 -15 0
-135 134 0
-135 15 0
136 -753 -133 0
-136 753 0
-136 133 0
137 -13 -11 0
-137 13 0
-137 11 0
138 -137 -743 0
-138 137 0
-138 743 0
139 -754 -136 0
-139 754 0
-139 136 0
140 -37 -755 0
-140 37 0
-140 755 0
141 -140 -40 0
-141 140 0
-141 40 0
142 -756 -139 0
-142 756 0
-142 139 0
143 -41 -757 0
-143 41 0
-143 757 0
144 -143 -22 0
-144 143 0
-144 22 0
145 -758 -142 0
-145 758 0
-145 142 0
146 -759 -13 0
-146 759 0
-146 13 0
147 -146 -714 0
-147 146 0
-147 714 0
148 -760 -145 0
-148 760 0
-148 145 0
149 -35 -755 0
-149 35 0
-149 755 0
150 -149 -761 0
-150 149 0
-150 761 0
151 -762 -148 0
-151 762 0
-151 148 0
152 -763 -43 0
-152 763 0
-152 43 0
153 -152 -38 0
-153 152 0
-153 38 0
154 -764 -151 0
-154 764 0
-154 151 0
155 -765 -38 0
-155 765 0
-155 38 0
156 -155 -712 0
-156 155 0
-156 712 0
157 -766 -154 0
-157 766 0
-157 154 0
158 -723 -10 0
-158 723 0
-158 10 0
159 -158 -45 0
-159 158 0
-159 45 0
160 -767 -157 0
-160 767 0
-160 157 0
161 -763 -704 0
-161 763 0
-161 704 0
162 -161 -719 0
-162 161 0
-162 719 0
163 -768 -160 0
-163 768 0
-163 160 0
164 -707 -2 0
-164 707 0
-164 2 0
165 -164 -706 0
-165 164 0
-165 706 0
166 -769 -163 0
-166 769 0
-166 163 0
167 -31 -16 0
-167 31 0
-167 16 0
168 -167 -22 0
-168 167 0
-168 22 0
169 -770 -166 0
-169 770 0
-169 166 0
170 -18 -700 0
-170 18 0
-170 700 0
171 -170 -29 0
-171 170 0
-171 29 0
172 -771 -169 0
-172 771 0
-172 169 0
173 -742 -25 0
-173 742 0
-173 25 0
174 -173 -6 0
-174 173 0
-174 6 0
175 -772 -172 0
-175 772 0
-175 172 0
176 -15 -1 0
-176 15 0
-176 1 0
177 -176 -773 0
-177 176 0
-177 773 0
178 -774 -175 0
-178 774 0
-178 175 0
179 -43 -752 0
-179 43 0
-179 752 0
180 -179 -712 0
-180 179 0
-180 712 0
181 -775 -178 0
-181 775 0
-181 178 0
182 -742 -746 0
-182 742 0
-182 746 0
183 -182 -11 0
-183 182 0
-183 11 0
184 -776 -181 0
-184 776 0
-184 181 0
185 -13 -1 0
-185 13 0
-185 1 0
186 -185 -777 0
-186 185 0
-186 777 0
187 -778 -184 0
-187 778 0
-187 184 0
188 -779 -17 0
-188 779 0
-188 17 0
189 -188 -44 0
-189 188 0
-189 44 0
190 -780 -187 0
-190 780 0
-190 187 0
191 -761 -759 0
-191 761 0
-191 759 0
192 -191 -39 0
-192 191 0
-192 39 0
193 -781 -190 0
-193 781 0
-193 190 0
194 -782 -712 0
-194 782 0
-194 712 0
195 -194 -738 0
-195 194 0
-195 738 0
196 -783 -193 0
-196 783 0
-196 193 0
197 -784 -765 0
-197 784 0
-197 765 0
198 -197 -714 0
-198 197 0
-198 714 0
199 -785 -196 0
-199 785 0
-199 196 0
200 -32 -1 0
-200 32 0
-200 1 0
201 -200 -40 0
-201 200 0
-201 40 0
202 -786 -199 0
-202 786 0
-202 199 0
203 -31 -787 0
-203 31 0
-203 787 0
204 -203 -47 0
-204 203 0
-204 47 0
205 -788 -202 0
-205 788 0
-205 202 0
206 -35 -31 0
-206 35 0
-206 31 0
207 -206 -5 0
-207 206 0
-207 5 0
208 -789 -205 0
-208 789 0
-208 205 0
209 -38 -2 0
-209 38 0
-209 2 0
210 -209 -722 0
-210 209 0
-210 722 0
211 -790 -208 0
-211 790 0
-211 208 0
212 -34 -23 0
-212 34 0
-212 23 0
213 -212 -738 0
-213 212 0
-213 738 0
214 -791 -211 0
-214 791 0
-214 211 0
215 -761 -746 0
-215 761 0
-215 746 0
216 -215 -26 0
-216 215 0
-216 26 0
217 -792 -214 0
-217 792 0
-217 214 0
218 -37 -787 0
-218 37 0
-218 787 0
219 -218 -13 0
-219 218 0
-219 13 0
220 -793 -217 0
-220 793 0
-220 217 0
221 -125 -700 0
-221 125 0
-221 700 0
222 -794 -220 0
-222 794 0
-222 220 0
223 -14 -699 0
-223 14 0
-223 699 0
224 -223 -40 0
-224 223 0
-224 40 0
225 -795 -222 0
-225 795 0
-225 222 0
226 -31 -796 0
-226 31 0
-226 796 0
227 -226 -24 0
-227 226 0
-227 24 0
228 -797 -225 0
-228 797 0
-228 225 0
229 -32 -798 0
-229 32 0
-229 798 0
230 -229 -773 0
-230 229 0
-230 773 0
231 -799 -228 0
-231 799 0
-231 228 0
232 -47 -32 0
-232 47 0
-232 32 0
233 -232 -9 0
-233 232 0
-233 9 0
234 -800 -231 0
-234 800 0
-234 231 0
235 -729 -755 0
-235 729 0
-235 755 0
236 -235 -46 0
-236 235 0
-236 46 0
237 -801 -234 0
-237 801 0
-237 234 0
238 -759 -28 0
-238 759 0
-238 28 0
239 -238 -719 0
-239 238 0
-239 719 0
240 -802 -237 0
-240 802 0
-240 237 0
241 -803 -787 0
-241 803 0
-241 787 0
242 -241 -784 0
-242 241 0
-242 784 0
243 -804 -240 0
-243 804 0
-243 240 0
244 -48 -25 0
-244 48 0
-244 25 0
245 -244 -22 0
-245 244 0
-245 22 0
246 -805 -243 0
-246 805 0
-246 243 0
247 -747 -21 0
-247 747 0
-247 21 0
248 -247 -731 0
-248 247 0
-248 731 0
249 -806 -246 0
-249 806 0
-249 246 0
250 -46 -757 0
-250 46 0
-250 757 0
251 -250 -738 0
-251 250 0
-251 738 0
252 -807 -249 0
-252 807 0
-252 249 0
253 -47 -13 0
-253 47 0
-253 13 0
254 -253 -765 0
-254 253 0
-254 765 0
255 -808 -252 0
-255 808 0
-255 252 0
256 -185 -714 0
-256 185 0
-256 714 0
257 -809 -255 0
-257 809 0
-257 255 0
258 -21 -703 0
-258 21 0
-258 703 0
259 -258 -723 0
-259 258 0
-259 723 0
260 -810 -257 0
-260 810 0
-260 257 0
261 -742 -718 0
-261 742 0
-261 718 0
262 -261 -734 0
-262 261 0
-262 734 0
263 -811 -260 0
-263 811 0
-263 260 0
264 -812 -7 0
-264 812 0
-264 7 0
265 -264 -738 0
-265 264 0
-265 738 0
266 -813 -263 0
-266 813 0
-266 263 0
267 -32 -755 0
-267 32 0
-267 755 0
268 -267 -12 0
-268 267 0
-268 12 0
269 -814 -266 0
-269 814 0
-269 266 0
270 -725 -779 0
-270 725 0
-270 779 0
271 -270 -815 0
-271 270 0
-271 815 0
272 -816 -269 0
-272 816 0
-272 269 0
273 -747 -7 0
-273 747 0
-273 7 0
274 -273 -39 0
-274 273 0
-274 39 0
275 -817 -272 0
-275 817 0
-275 272 0
276 -11 -1 0
-276 11 0
-276 1 0
277 -276 -47 0
-277 276 0
-277 47 0
278 -818 -275 0
-278 818 0
-278 275 0
279 -38 -37 0
-279 38 0
-279 37 0
280 -279 -757 0
-280 279 0
-280 757 0
281 -819 -278 0
-281 819 0
-281 278 0
282 -49 -31 0
-282 49 0
-282 31 0
283 -282 -39 0
-283 282 0
-283 39 0
284 -820 -281 0
-284 820 0
-284 281 0
285 -718 -731 0
-285 718 0
-285 731 0
286 -285 -712 0
-286 285 0
-286 712 0
287 -821 -284 0
-287 821 0
-287 284 0
288 -718 -26 0
-288 718 0
-288 26 0
289 -288 -747 0
-289 288 0
-289 747 0
290 -822 -287 0
-290 822 0
-290 287 0
291 -803 -722 0
-291 803 0
-291 722 0
292 -291 -750 0
-292 291 0
-292 750 0
293 -823 -290 0
-293 823 0
-293 290 0
294 -763 -35 0
-294 763 0
-294 35 0
295 -294 -752 0
-295 294 0
-295 752 0
296 -824 -293 0
-296 824 0
-296 293 0
297 -19 -16 0
-297 19 0
-297 16 0
298 -297 -45 0
-298 297 0
-298 45 0
299 -825 -296 0
-299 825 0
-299 296 0
300 -21 -4 0
-300 21 0
-300 4 0
301 -300 -698 0
-301 300 0
-301 698 0
302 -826 -299 0
-302 826 0
-302 299 0
303 -41 -18 0
-303 41 0
-303 18 0
304 -303 -773 0
-304 303 0
-304 773 0
305 -827 -302 0
-305 827 0
-305 302 0
306 -44 -27 0
-306 44 0
-306 27 0
307 -306 -731 0
-307 306 0
-307 731 0
308 -828 -305 0
-308 828 0
-308 305 0
309 -49 -725 0
-309 49 0
-309 725 0
310 -309 -12 0
-310 309 0
-310 12 0
311 -829 -308 0
-311 829 0
-311 308 0
312 -49 -697 0
-312 49 0
-312 697 0
313 -312 -9 0
-313 312 0
-313 9 0
314 -830 -311 0
-314 830 0
-314 311 0
315 -49 -23 0
-315 49 0
-315 23 0
316 -315 -39 0
-316 315 0
-316 39 0
317 -831 -314 0
-317 831 0
-317 314 0
318 -47 -759 0
-318 47 0
-318 759 0
319 -318 -45 0
-319 318 0
-319 45 0
320 -832 -317 0
-320 832 0
-320 317 0
321 -38 -4 0
-321 38 0
-321 4 0
322 -321 -712 0
-322 321 0
-322 712 0
323 -833 -320 0
-323 833 0
-323 320 0
324 -752 -815 0
-324 752 0
-324 815 0
325 -324 -22 0
-325 324 0
-325 22 0
326 -834 -323 0
-326 834 0
-326 323 0
327 -47 -33 0
-327 47 0
-327 33 0
328 -327 -45 0
-328 327 0
-328 45 0
329 -835 -326 0
-329 835 0
-329 326 0
330 -48 -10 0
-330 48 0
-330 10 0
331 -330 -697 0
-331 330 0
-331 697 0
332 -836 -329 0
-332 836 0
-332 329 0
333 -723 -746 0
-333 723 0
-333 746 0
334 -333 -3 0
-334 333 0
-334 3 0
335 -837 -332 0
-335 837 0
-335 332 0
336 -48 -759 0
-336 48 0
-336 759 0
337 -336 -38 0
-337 336 0
-337 38 0
338 -838 -335 0
-338 838 0
-338 335 0
339 -42 -30 0
-339 42 0
-339 30 0
340 -339 -722 0
-340 339 0
-340 722 0
341 -839 -338 0
-341 839 0
-341 338 0
342 -34 -31 0
-342 34 0
-342 31 0
343 -342 -743 0
-343 342 0
-343 743 0
344 -840 -341 0
-344 840 0
-344 341 0
345 -761 -752 0
-345 761 0
-345 752 0
346 -345 -12 0
-346 345 0
-346 12 0
347 -841 -344 0
-347 841 0
-347 344 0
348 -803 -740 0
-348 803 0
-348 740 0
349 -348 -18 0
-349 348 0
-349 18 0
350 -842 -347 0
-350 842 0
-350 347 0
351 -34 -7 0
-351 34 0
-351 7 0
352 -351 -33 0
-352 351 0
-352 33 0
353 -843 -350 0
-353 843 0
-353 350 0
354 -47 -28 0
-354 47 0
-354 28 0
355 -354 -8 0
-355 354 0
-355 8 0
356 -844 -353 0
-356 844 0
-356 353 0
357 -42 -716 0
-357 42 0
-357 716 0
358 -357 -9 0
-358 357 0
-358 9 0
359 -845 -356 0
-359 845 0
-359 356 0
360 -752 -787 0
-360 752 0
-360 787 0
361 -360 -773 0
-361 360 0
-361 773 0
362 -846 -359 0
-362 846 0
-362 359 0
363 -729 -23 0
-363 729 0
-363 23 0
364 -363 -777 0
-364 363 0
-364 777 0
365 -847 -362 0
-365 847 0
-365 362 0
366 -848 -700 0
-366 848 0
-366 700 0
367 -366 -6 0
-367 366 0
-367 6 0
368 -849 -365 0
-368 849 0
-368 365 0
369 -41 -704 0
-369 41 0
-369 704 0
370 -369 -719 0
-370 369 0
-370 719 0
371 -850 -368 0
-371 850 0
-371 368 0
372 -779 -812 0
-372 779 0
-372 812 0
373 -372 -777 0
-373 372 0
-373 777 0
374 -851 -371 0
-374 851 0
-374 371 0
375 -34 -796 0
-375 34 0
-375 796 0
376 -375 -8 0
-376 375 0
-376 8 0
377 -852 -374 0
-377 852 0
-377 374 0
378 -27 -18 0
-378 27 0
-378 18 0
379 -378 -42 0
-379 378 0
-379 42 0
380 -853 -377 0
-380 853 0
-380 377 0
381 -40 -3 0
-381 40 0
-381 3 0
382 -381 -752 0
-382 381 0
-382 752 0
383 -854 -380 0
-383 854 0
-383 380 0
384 -855 -755 0
-384 855 0
-384 755 0
385 -384 -738 0
-385 384 0
-385 738 0
386 -856 -383 0
-386 856 0
-386 383 0
387 -777 -19 0
-387 777 0
-387 19 0
388 -387 -757 0
-388 387 0
-388 757 0
389 -857 -386 0
-389 857 0
-389 386 0
390 -858 -31 0
-390 858 0
-390 31 0
391 -390 -42 0
-391 390 0
-391 42 0
392 -859 -389 0
-392 859 0
-392 389 0
393 -43 -746 0
-393 43 0
-393 746 0
394 -393 -41 0
-394 393 0
-394 41 0
395 -860 -392 0
-395 860 0
-395 392 0
396 -43 -2 0
-396 43 0
-396 2 0
397 -396 -13 0
-397 396 0
-397 13 0
398 -861 -395 0
-398 861 0
-398 395 0
399 -47 -36 0
-399 47 0
-399 36 0
400 -399 -757 0
-400 399 0
-400 757 0
401 -862 -398 0
-401 862 0
-401 398 0
402 -7 -5 0
-402 7 0
-402 5 0
403 -402 -20 0
-403 402 0
-403 20 0
404 -863 -401 0
-404 863 0
-404 401 0
405 -50 -787 0
-405 50 0
-405 787 0
406 -405 -24 0
-406 405 0
-406 24 0
407 -864 -404 0
-407 864 0
-407 404 0
408 -40 -2 0
-408 40 0
-408 2 0
409 -408 -9 0
-409 408 0
-409 9 0
410 -865 -407 0
-410 865 0
-410 407 0
411 -866 -27 0
-411 866 0
-411 27 0
412 -411 -12 0
-412 411 0
-412 12 0
413 -867 -410 0
-413 867 0
-413 410 0
414 -31 -779 0
-414 31 0
-414 779 0
415 -414 -697 0
-415 414 0
-415 697 0
416 -868 -413 0
-416 868 0
-416 413 0
417 -742 -31 0
-417 742 0
-417 31 0
418 -417 -798 0
-418 417 0
-418 798 0
419 -869 -416 0
-419 869 0
-419 416 0
420 -34 -19 0
-420 34 0
-420 19 0
421 -420 -746 0
-421 420 0
-421 746 0
422 -870 -419 0
-422 870 0
-422 419 0
423 -34 -700 0
-423 34 0
-423 700 0
424 -423 -12 0
-424 423 0
-424 12 0
425 -871 -422 0
-425 871 0
-425 422 0
426 -26 -16 0
-426 26 0
-426 16 0
427 -426 -738 0
-427 426 0
-427 738 0
428 -872 -425 0
-428 872 0
-428 425 0
429 -763 -28 0
-429 763 0
-429 28 0
430 -429 -714 0
-430 429 0
-430 714 0
431 -873 -428 0
-431 873 0
-431 428 0
432 -28 -740 0
-432 28 0
-432 740 0
433 -432 -3 0
-433 432 0
-433 3 0
434 -874 -431 0
-434 874 0
-434 431 0
435 -727 -706 0
-435 727 0
-435 706 0
436 -435 -12 0
-436 435 0
-436 12 0
437 -875 -434 0
-437 875 0
-437 434 0
438 -23 -707 0
-438 23 0
-438 707 0
439 -438 -14 0
-439 438 0
-439 14 0
440 -876 -437 0
-440 876 0
-440 437 0
441 -11 -697 0
-441 11 0
-441 697 0
442 -441 -20 0
-442 441 0
-442 20 0
443 -877 -440 0
-443 877 0
-443 440 0
444 -38 -13 0
-444 38 0
-444 13 0
445 -444 -752 0
-445 444 0
-445 752 0
446 -878 -443 0
-446 878 0
-446 443 0
447 -28 -21 0
-447 28 0
-447 21 0
448 -447 -718 0
-448 447 0
-448 718 0
449 -879 -446 0
-449 879 0
-449 446 0
450 -866 -1 0
-450 866 0
-450 1 0
451 -450 -9 0
-451 450 0
-451 9 0
452 -880 -449 0
-452 880 0
-452 449 0
453 -734 -7 0
-453 734 0
-453 7 0
454 -453 -29 0
-454 453 0
-454 29 0
455 -881 -452 0
-455 881 0
-455 452 0
456 -32 -17 0
-456 32 0
-456 17 0
457 -456 -704 0
-457 456 0
-457 704 0
458 -882 -455 0
-458 882 0
-458 455 0
459 -779 -757 0
-459 779 0
-459 757 0
460 -459 -39 0
-460 459 0
-460 39 0
461 -883 -458 0
-461 883 0
-461 458 0
462 -759 -742 0
-462 759 0
-462 742 0
463 -462 -13 0
-463 462 0
-463 13 0
464 -884 -461 0
-464 884 0
-464 461 0
465 -101 -712 0
-465 101 0
-465 712 0
466 -885 -464 0
-466 885 0
-466 464 0
467 -38 -698 0
-467 38 0
-467 698 0
468 -467 -9 0
-468 467 0
-468 9 0
469 -886 -466 0
-469 886 0
-469 466 0
470 -858 -14 0
-470 858 0
-470 14 0
471 -470 -49 0
-471 470 0
-471 49 0
472 -887 -469 0
-472 887 0
-472 469 0
473 -47 -761 0
-473 47 0
-473 761 0
474 -473 -714 0
-474 473 0
-474 714 0
475 -888 -472 0
-475 888 0
-475 472 0
476 -889 -742 0
-476 889 0
-476 742 0
477 -476 -5 0
-477 476 0
-477 5 0
478 -890 -475 0
-478 890 0
-478 475 0
479 -43 -28 0
-479 43 0
-479 28 0
480 -479 -29 0
-480 479 0
-480 29 0
481 -891 -478 0
-481 891 0
-481 478 0
482 -13 -706 0
-482 13 0
-482 706 0
483 -482 -6 0
-483 482 0
-483 6 0
484 -892 -481 0
-484 892 0
-484 481 0
485 -803 -743 0
-485 803 0
-485 743 0
486 -485 -750 0
-486 485 0
-486 750 0
487 -893 -484 0
-487 893 0
-487 484 0
488 -725 -16 0
-488 725 0
-488 16 0
489 -488 -39 0
-489 488 0
-489 39 0
490 -894 -487 0
-490 894 0
-490 487 0
491 -28 -25 0
-491 28 0
-491 25 0
492 -491 -44 0
-492 491 0
-492 44 0
493 -895 -490 0
-493 895 0
-493 490 0
494 -49 -722 0
-494 49 0
-494 722 0
495 -494 -752 0
-495 494 0
-495 752 0
496 -896 -493 0
-496 896 0
-496 493 0
497 -46 -706 0
-497 46 0
-497 706 0
498 -497 -6 0
-498 497 0
-498 6 0
499 -897 -496 0
-499 897 0
-499 496 0
500 -46 -734 0
-500 46 0
-500 734 0
501 -500 -15 0
-501 500 0
-501 15 0
502 -898 -499 0
-502 898 0
-502 499 0
503 -729 -24 0
-503 729 0
-503 24 0
504 -503 -773 0
-504 503 0
-504 773 0
505 -899 -502 0
-505 899 0
-505 502 0
506 -707 -8 0
-506 707 0
-506 8 0
507 -506 -9 0
-507 506 0
-507 9 0
508 -900 -505 0
-508 900 0
-508 505 0
509 -41 -707 0
-509 41 0
-509 707 0
510 -509 -731 0
-510 509 0
-510 731 0
511 -901 -508 0
-511 901 0
-511 508 0
512 -782 -750 0
-512 782 0
-512 750 0
513 -512 -49 0
-513 512 0
-513 49 0
514 -902 -511 0
-514 902 0
-514 511 0
515 -718 -1 0
-515 718 0
-515 1 0
516 -515 -2 0
-516 515 0
-516 2 0
517 -903 -514 0
-517 903 0
-517 514 0
518 -41 -787 0
-518 41 0
-518 787 0
519 -518 -6 0
-519 518 0
-519 6 0
520 -904 -517 0
-520 904 0
-520 517 0
521 -25 -4 0
-521 25 0
-521 4 0
522 -521 -738 0
-522 521 0
-522 738 0
523 -905 -520 0
-523 905 0
-523 520 0
524 -784 -755 0
-524 784 0
-524 755 0
525 -524 -40 0
-525 524 0
-525 40 0
526 -906 -523 0
-526 906 0
-526 523 0
527 -755 -706 0
-527 755 0
-527 706 0
528 -527 -731 0
-528 527 0
-528 731 0
529 -907 -526 0
-529 907 0
-529 526 0
530 -747 -11 0
-530 747 0
-530 11 0
531 -530 -13 0
-531 530 0
-531 13 0
532 -908 -529 0
-532 908 0
-532 529 0
533 -725 -815 0
-533 725 0
-533 815 0
534 -533 -734 0
-534 533 0
-534 734 0
535 -909 -532 0
-535 909 0
-535 532 0
536 -803 -707 0
-536 803 0
-536 707 0
537 -536 -855 0
-537 536 0
-537 855 0
538 -910 -535 0
-538 910 0
-538 535 0
539 -42 -25 0
-539 42 0
-539 25 0
540 -539 -20 0
-540 539 0
-540 20 0
541 -911 -538 0
-541 911 0
-541 538 0
542 -698 -2 0
-542 698 0
-542 2 0
543 -542 -719 0
-543 542 0
-543 719 0
544 -912 -541 0
-544 912 0
-544 541 0
545 -36 -2 0
-545 36 0
-545 2 0
546 -545 -13 0
-546 545 0
-546 13 0
547 -913 -544 0
-547 913 0
-547 544 0
548 -803 -779 0
-548 803 0
-548 779 0
549 -548 -773 0
-549 548 0
-549 773 0
550 -914 -547 0
-550 914 0
-550 547 0
551 -848 -29 0
-551 848 0
-551 29 0
552 -551 -45 0
-552 551 0
-552 45 0
553 -915 -550 0
-553 915 0
-553 550 0
554 -30 -706 0
-554 30 0
-554 706 0
555 -554 -765 0
-555 554 0
-555 765 0
556 -916 -553 0
-556 916 0
-556 553 0
557 -742 -707 0
-557 742 0
-557 707 0
558 -557 -704 0
-558 557 0
-558 704 0
559 -917 -556 0
-559 917 0
-559 556 0
560 -50 -703 0
-560 50 0
-560 703 0
561 -560 -20 0
-561 560 0
-561 20 0
562 -918 -559 0
-562 918 0
-562 559 0
563 -44 -742 0
-563 44 0
-563 742 0
564 -563 -731 0
-564 563 0
-564 731 0
565 -919 -562 0
-565 919 0
-565 562 0
566 -729 -740 0
-566 729 0
-566 740 0
567 -566 -33 0
-567 566 0
-567 33 0
568 -920 -565 0
-568 920 0
-568 565 0
569 -707 -704 0
-569 707 0
-569 704 0
570 -569 -4 0
-570 569 0
-570 4 0
571 -921 -568 0
-571 921 0
-571 568 0
572 -14 -7 0
-572 14 0
-572 7 0
573 -572 -714 0
-573 572 0
-573 714 0
574 -922 -571 0
-574 922 0
-574 571 0
575 -742 -1 0
-575 742 0
-575 1 0
576 -575 -22 0
-576 575 0
-576 22 0
577 -923 -574 0
-577 923 0
-577 574 0
578 -29 -699 0
-578 29 0
-578 699 0
579 -578 -855 0
-579 578 0
-579 855 0
580 -924 -577 0
-580 924 0
-580 577 0
581 -798 -14 0
-581 798 0
-581 14 0
582 -581 -9 0
-582 581 0
-582 9 0
583 -925 -580 0
-583 925 0
-583 580 0
584 -22 -20 0
-584 22 0
-584 20 0
585 -584 -719 0
-585 584 0
-585 719 0
586 -926 -583 0
-586 926 0
-586 583 0
587 -46 -35 0
-587 46 0
-587 35 0
588 -587 -33 0
-588 587 0
-588 33 0
589 -927 -586 0
-589 927 0
-589 586 0
590 -43 -803 0
-590 43 0
-590 803 0
591 -590 -699 0
-591 590 0
-591 699 0
592 -928 -589 0
-592 928 0
-592 589 0
593 -742 -33 0
-593 742 0
-593 33 0
594 -593 -773 0
-594 593 0
-594 773 0
595 -929 -592 0
-595 929 0
-595 592 0
596 -803 -21 0
-596 803 0
-596 21 0
597 -596 -10 0
-597 596 0
-597 10 0
598 -930 -595 0
-598 930 0
-598 595 0
599 -782 -28 0
-599 782 0
-599 28 0
600 -599 -38 0
-600 599 0
-600 38 0
601 -931 -598 0
-601 931 0
-601 598 0
602 -23 -14 0
-602 23 0
-602 14 0
603 -602 -22 0
-603 602 0
-603 22 0
604 -932 -601 0
-604 932 0
-604 601 0
605 -83 -5 0
-605 83 0
-605 5 0
606 -933 -604 0
-606 933 0
-606 604 0
607 -33 -699 0
-607 33 0
-607 699 0
608 -607 -15 0
-608 607 0
-608 15 0
609 -934 -606 0
-609 934 0
-609 606 0
610 -779 -740 0
-610 779 0
-610 740 0
611 -610 -24 0
-611 610 0
-611 24 0
612 -935 -609 0
-612 935 0
-612 609 0
613 -46 -33 0
-613 46 0
-613 33 0
614 -613 -12 0
-614 613 0
-614 12 0
615 -936 -612 0
-615 936 0
-615 612 0
616 -725 -17 0
-616 725 0
-616 17 0
617 -616 -22 0
-617 616 0
-617 22 0
618 -937 -615 0
-618 937 0
-618 615 0
619 -742 -34 0
-619 742 0
-619 34 0
620 -619 -889 0
-620 619 0
-620 889 0
621 -938 -618 0
-621 938 0
-621 618 0
622 -803 -757 0
-622 803 0
-622 757 0
623 -622 -24 0
-623 622 0
-623 24 0
624 -939 -621 0
-624 939 0
-624 621 0
625 -610 -3 0
-625 610 0
-625 3 0
626 -940 -624 0
-626 940 0
-626 624 0
627 -48 -734 0
-627 48 0
-627 734 0
628 -627 -12 0
-628 627 0
-628 12 0
629 -941 -626 0
-629 941 0
-629 626 0
630 -707 -4 0
-630 707 0
-630 4 0
631 -630 -765 0
-631 630 0
-631 765 0
632 -942 -629 0
-632 942 0
-632 629 0
633 -47 -755 0
-633 47 0
-633 755 0
634 -633 -699 0
-634 633 0
-634 699 0
635 -943 -632 0
-635 943 0
-635 632 0
636 -755 -3 0
-636 755 0
-636 3 0
637 -636 -752 0
-637 636 0
-637 752 0
638 -944 -635 0
-638 944 0
-638 635 0
639 -812 -706 0
-639 812 0
-639 706 0
640 -639 -712 0
-640 639 0
-640 712 0
641 -945 -638 0
-641 945 0
-641 638 0
642 -48 -740 0
-642 48 0
-642 740 0
643 -642 -3 0
-643 642 0
-643 3 0
644 -946 -641 0
-644 946 0
-644 641 0
645 -11 -4 0
-645 11 0
-645 4 0
646 -645 -719 0
-646 645 0
-646 719 0
647 -947 -644 0
-647 947 0
-647 644 0
648 -44 -22 0
-648 44 0
-648 22 0
649 -648 -45 0
-649 648 0
-649 45 0
650 -948 -647 0
-650 948 0
-650 647 0
651 -530 -33 0
-651 530 0
-651 33 0
652 -949 -650 0
-652 949 0
-652 650 0
653 -803 -777 0
-653 803 0
-653 777 0
654 -653 -714 0
-654 653 0
-654 714 0
655 -950 -652 0
-655 950 0
-655 652 0
656 -706 -703 0
-656 706 0
-656 703 0
657 -656 -23 0
-657 656 0
-657 23 0
658 -951 -655 0
-658 951 0
-658 655 0
659 -48 -703 0
-659 48 0
-659 703 0
660 -659 -752 0
-660 659 0
-660 752 0
661 -952 -658 0
-661 952 0
-661 658 0
662 -48 -19 0
-662 48 0
-662 19 0
663 -662 -26 0
-663 662 0
-663 26 0
664 -953 -661 0
-664 953 0
-664 661 0
665 -763 -16 0
-665 763 0
-665 16 0
666 -665 -14 0
-666 665 0
-666 14 0
667 -954 -664 0
-667 954 0
-667 664 0
668 -613 -855 0
-668 613 0
-668 855 0
669 -955 -667 0
-669 955 0
-669 667 0
670 -42 -803 0
-670 42 0
-670 803 0
671 -670 -40 0
-671 670 0
-671 40 0
672 -956 -669 0
-672 956 0
-672 669 0
673 -866 -8 0
-673 866 0
-673 8 0
674 -673 -763 0
-674 673 0
-674 763 0
675 -957 -672 0
-675 957 0
-675 672 0
676 -23 -3 0
-676 23 0
-676 3 0
677 -676 -45 0
-677 676 0
-677 45 0
678 -958 -675 0
-678 958 0
-678 675 0
679 -27 -704 0
-679 27 0
-679 704 0
680 -679 -759 0
-680 679 0
-680 759 0
681 -959 -678 0
-681 959 0
-681 678 0
682 -39 -28 0
-682 39 0
-682 28 0
683 -682 -9 0
-683 682 0
-683 9 0
684 -960 -681 0
-684 960 0
-684 681 0
685 -37 -1 0
-685 37 0
-685 1 0
686 -685 -8 0
-686 685 0
-686 8 0
687 -961 -684 0
-687 961 0
-687 684 0
688 -763 -26 0
-688 763 0
-688 26 0
689 -688 -719 0
-689 688 0
-689 719 0
690 -962 -687 0
-690 962 0
-690 687 0
691 -31 -722 0
-691 31 0
-691 722 0
692 -691 -22 0
-692 691 0
-692 22 0
693 -963 -690 0
-693 963 0
-693 690 0
694 -35 -777 0
-694 35 0
-694 777 0
695 -694 -752 0
-695 694 0
-695 752 0
696 -964 -693 0
-696 964 0
-696 693 0
-697 -2 0
697 2 0
-698 -3 0
698 3 0
-699 -5 0
699 5 0
-700 -4 0
700 4 0
-701 -54 0
701 54 0
-702 -52 0
702 52 0
-703 -8 0
703 8 0
-704 -7 0
704 7 0
-705 -57 0
705 57 0
-706 -11 0
706 11 0
-707 -10 0
707 10 0
-708 -60 0
708 60 0
-709 -63 0
709 63 0
-710 -66 0
710 66 0
-711 -69 0
711 69 0
-712 -22 0
712 22 0
-713 -72 0
713 72 0
-714 -24 0
714 24 0
-715 -75 0
715 75 0
-716 -13 0
716 13 0
-717 -78 0
717 78 0
-718 -27 0
718 27 0
-719 -9 0
719 9 0
-720 -81 0
720 81 0
-721 -84 0
721 84 0
-722 -23 0
722 23 0
-723 -29 0
723 29 0
-724 -87 0
724 87 0
-725 -30 0
725 30 0
-726 -90 0
726 90 0
-727 -31 0
727 31 0
-728 -93 0
728 93 0
-729 -32 0
729 32 0
-730 -96 0
730 96 0
-731 -15 0
731 15 0
-732 -99 0
732 99 0
-733 -102 0
733 102 0
-734 -36 0
734 36 0
-735 -105 0
735 105 0
-736 -108 0
736 108 0
-737 -111 0
737 111 0
-738 -12 0
738 12 0
-739 -114 0
739 114 0
-740 -1 0
740 1 0
-741 -117 0
741 117 0
-742 -37 0
742 37 0
-743 -14 0
743 14 0
-744 -120 0
744 120 0
-745 -123 0
745 123 0
-746 -17 0
746 17 0
-747 -38 0
747 38 0
-748 -126 0
748 126 0
-749 -129 0
749 129 0
-750 -33 0
750 33 0
-751 -132 0
751 132 0
-752 -39 0
752 39 0
-753 -135 0
753 135 0
-754 -138 0
754 138 0
-755 -16 0
755 16 0
-756 -141 0
756 141 0
-757 -6 0
757 6 0
-758 -144 0
758 144 0
-759 -42 0
759 42 0
-760 -147 0
760 147 0
-761 -43 0
761 43 0
-762 -150 0
762 150 0
-763 -44 0
763 44 0
-764 -153 0
764 153 0
-765 -40 0
765 40 0
-766 -156 0
766 156 0
-767 -159 0
767 159 0
-768 -162 0
768 162 0
-769 -165 0
769 165 0
-770 -168 0
770 168 0
-771 -171 0
771 171 0
-772 -174 0
772 174 0
-773 -45 0
773 45 0
-774 -177 0
774 177 0
-775 -180 0
775 180 0
-776 -183 0
776 183 0
-777 -20 0
777 20 0
-778 -186 0
778 186 0
-779 -26 0
779 26 0
-780 -189 0
780 189 0
-781 -192 0
781 192 0
-782 -41 0
782 41 0
-783 -195 0
783 195 0
-784 -46 0
784 46 0
-785 -198 0
785 198 0
-786 -201 0
786 201 0
-787 -25 0
787 25 0
-788 -204 0
788 204 0
-789 -207 0
789 207 0
-790 -210 0
790 210 0
-791 -213 0
791 213 0
-792 -216 0
792 216 0
-793 -219 0
793 219 0
-794 -221 0
794 221 0
-795 -224 0
795 224 0
-796 -28 0
796 28 0
-797 -227 0
797 227 0
-798 -21 0
798 21 0
-799 -230 0
799 230 0
-800 -233 0
800 233 0
-801 -236 0
801 236 0
-802 -239 0
802 239 0
-803 -35 0
803 35 0
-804 -242 0
804 242 0
-805 -245 0
805 245 0
-806 -248 0
806 248 0
-807 -251 0
807 251 0
-808 -254 0
808 254 0
-809 -256 0
809 256 0
-810 -259 0
810 259 0
-811 -262 0
811 262 0
-812 -19 0
812 19 0
-813 -265 0
813 265 0
-814 -268 0
814 268 0
-815 -18 0
815 18 0
-816 -271 0
816 271 0
-817 -274 0
817 274 0
-818 -277 0
818 277 0
-819 -280 0
819 280 0
-820 -283 0
820 283 0
-821 -286 0
821 286 0
-822 -289 0
822 289 0
-823 -292 0
823 292 0
-824 -295 0
824 295 0
-825 -298 0
825 298 0
-826 -301 0
826 301 0
-827 -304 0
827 304 0
-828 -307 0
828 307 0
-829 -310 0
829 310 0
-830 -313 0
830 313 0
-831 -316 0
831 316 0
-832 -319 0
832 319 0
-833 -322 0
833 322 0
-834 -325 0
834 325 0
-835 -328 0
835 328 0
-836 -331 0
836 331 0
-837 -334 0
837 334 0
-838 -337 0
838 337 0
-839 -340 0
839 340 0
-840 -343 0
840 343 0
-841 -346 0
841 346 0
-842 -349 0
842 349 0
-843 -352 0
843 352 0
-844 -355 0
844 355 0
-845 -358 0
845 358 0
-846 -361 0
846 361 0
-847 -364 0
847 364 0
-848 -50 0
848 50 0
-849 -367 0
849 367 0
-850 -370 0
850 370 0
-851 -373 0
851 373 0
-852 -376 0
852 376 0
-853 -379 0
853 379 0
-854 -382 0
854 382 0
-855 -49 0
855 49 0
-856 -385 0
856 385 0
-857 -388 0
857 388 0
-858 -48 0
858 48 0
-859 -391 0
859 391 0
-860 -394 0
860 394 0
-861 -397 0
861 397 0
-862 -400 0
862 400 0
-863 -403 0
863 403 0
-864 -406 0
864 406 0
-865 -409 0
865 409 0
-866 -34 0
866 34 0
-867 -412 0
867 412 0
-868 -415 0
868 415 0
-869 -418 0
869 418 0
-870 -421 0
870 421 0
-871 -424 0
871 424 0
-872 -427 0
872 427 0
-873 -430 0
873 430 0
-874 -433 0
874 433 0
-875 -436 0
875 436 0
-876 -439 0
876 439 0
-877 -442 0
877 442 0
-878 -445 0
878 445 0
-879 -448 0
879 448 0
-880 -451 0
880 451 0
-881 -454 0
881 454 0
-882 -457 0
882 457 0
-883 -460 0
883 460 0
-884 -463 0
884 463 0
-885 -465 0
885 465 0
-886 -468 0
886 468 0
-887 -471 0
887 471 0
-888 -474 0
888 474 0
-889 -47 0
889 47 0
-890 -477 0
890 477 0
-891 -480 0
891 480 0
-892 -483 0
892 483 0
-893 -486 0
893 486 0
-894 -489 0
894 489 0
-895 -492 0
895 492 0
-896 -495 0
896 495 0
-897 -498 0
897 498 0
-898 -501 0
898 501 0
-899 -504 0
899 504 0
-900 -507 0
900 507 0
-901 -510 0
901 510 0
-902 -513 0
902 513 0
-903 -516 0
903 516 0
-904 -519 0
904 519 0
-905 -522 0
905 522 0
-906 -525 0
906 525 0
-907 -528 0
907 528 0
-908 -531 0
908 531 0
-909 -534 0
909 534 0
-910 -537 0
910 537 0
-911 -540 0
911 540 0
-912 -543 0
912 543 0
-913 -546 0
913 546 0
-914 -549 0
914 549 0
-915 -552 0
915 552 0
-916 -555 0
916 555 0
-917 -558 0
917 558 0
-918 -561 0
918 561 0
-919 -564 0
919 564 0
-920 -567 0
920 567 0
-921 -570 0
921 570 0
-922 -573 0
922 573 0
-923 -576 0
923 576 0
-924 -579 0
924 579 0
-925 -582 0
925 582 0
-926 -585 0
926 585 0
-927 -588 0
927 588 0
-928 -591 0
928 591 0
-929 -594 0
929 594 0
-930 -597 0
930 597 0
-931 -600 0
931 600 0
-932 -603 0
932 603 0
-933 -605 0
933 605 0
-934 -608 0
934 608 0
-935 -611 0
935 611 0
-936 -614 0
936 614 0
-937 -617 0
937 617 0
-938 -620 0
938 620 0
-939 -623 0
939 623 0
-940 -625 0
940 625 0
-941 -628 0
941 628 0
-942 -631 0
942 631 0
-943 -634 0
943 634 0
-944 -637 0
944 637 0
-945 -640 0
945 640 0
-946 -643 0
946 643 0
-947 -646 0
947 646 0
-948 -649 0
948 649 0
-949 -651 0
949 651 0
-950 -654 0
950 654 0
-951 -657 0
951 657 0
-952 -660 0
952 660 0
-953 -663 0
953 663 0
-954 -666 0
954 666 0
-955 -668 0
955 668 0
-956 -671 0
956 671 0
-957 -674 0
957 674 0
-958 -677 0
958 677 0
-959 -680 0
959 680 0
-960 -683 0
960 683 0
-961 -686 0
961 686 0
-962 -689 0
962 689 0
-963 -692 0
963 692 0
-964 -695 0
964 695 0
696 0
